26
0 1 2 3 1 4 5 6 5 7 8 4 6 1 7 9 6 10 9 11 12 13 3 10 11 14 5 10 1 13 15 16 14 9 9 15 7 12 15 13 4 16 5 16 7 12 17 18 11 18 14 19 20 19 17 15 0 15 4 3 13 20 21 15 8 14 8 0 17 22 22 23 22 10 21 6 23 20 3 19 24 12 24 23 25 11 19 16 23 20 0 2 2 14 21 6 19 18 25 2 
